VALUE 4000
2 331
3 60
4 460
5 539
6 510
7 264
8 329
9 583
33 471
60 290
121 455
146 383
1 241
264 323
270 510
33 290
323 571
329 539
121 331
146 378
241 383
290 409
383 432
383 455
460 627
432 471
409 510
378 539
146 571
471 583
270 627

